models/minizinc/054_queens5.fzn
% Generated by MiniZinc 2.9.3
% Solver library: /opt/homebrew/Cellar/minizinc/2.9.3/share/minizinc/gecode_presolver
% Command line invocation: minizinc --solver org.gecode --compile 054_queens5.mzn 

predicate gecode_all_different_int(array [int] of var int: x);
var 1..8: X_INTRODUCED_16_;
var 1..8: X_INTRODUCED_17_;
var 1..8: X_INTRODUCED_18_;
var 1..8: X_INTRODUCED_19_;
var 1..8: X_INTRODUCED_20_;
var 1..8: X_INTRODUCED_21_;
var 1..8: X_INTRODUCED_22_;
var 1..8: X_INTRODUCED_23_;
var 2..9: X_INTRODUCED_25_ ::var_is_introduced :: is_defined_var;
var 3..10: X_INTRODUCED_26_ ::var_is_introduced :: is_defined_var;
var 4..11: X_INTRODUCED_27_ ::var_is_introduced :: is_defined_var;
var 5..12: X_INTRODUCED_28_ ::var_is_introduced :: is_defined_var;
var 6..13: X_INTRODUCED_29_ ::var_is_introduced :: is_defined_var;
var 7..14: X_INTRODUCED_30_ ::var_is_introduced :: is_defined_var;
var 8..15: X_INTRODUCED_31_ ::var_is_introduced :: is_defined_var;
var 9..16: X_INTRODUCED_32_ ::var_is_introduced :: is_defined_var;
var 0..7: X_INTRODUCED_34_ ::var_is_introduced :: is_defined_var;
var -1..6: X_INTRODUCED_35_ ::var_is_introduced :: is_defined_var;
var -2..5: X_INTRODUCED_36_ ::var_is_introduced :: is_defined_var;
var -3..4: X_INTRODUCED_37_ ::var_is_introduced :: is_defined_var;
var -4..3: X_INTRODUCED_38_ ::var_is_introduced :: is_defined_var;
var -5..2: X_INTRODUCED_39_ ::var_is_introduced :: is_defined_var;
var -6..1: X_INTRODUCED_40_ ::var_is_introduced :: is_defined_var;
var -7..0: X_INTRODUCED_41_ ::var_is_introduced :: is_defined_var;
array [1..8] of var int: queens:: output_array([1..8]) = [X_INTRODUCED_16_,X_INTRODUCED_17_,X_INTRODUCED_18_,X_INTRODUCED_19_,X_INTRODUCED_20_,X_INTRODUCED_21_,X_INTRODUCED_22_,X_INTRODUCED_23_];
array [1..8] of var int: X_INTRODUCED_33_ ::var_is_introduced  = [X_INTRODUCED_25_,X_INTRODUCED_26_,X_INTRODUCED_27_,X_INTRODUCED_28_,X_INTRODUCED_29_,X_INTRODUCED_30_,X_INTRODUCED_31_,X_INTRODUCED_32_];
array [1..8] of var int: X_INTRODUCED_42_ ::var_is_introduced  = [X_INTRODUCED_34_,X_INTRODUCED_35_,X_INTRODUCED_36_,X_INTRODUCED_37_,X_INTRODUCED_38_,X_INTRODUCED_39_,X_INTRODUCED_40_,X_INTRODUCED_41_];
constraint gecode_all_different_int(queens);
constraint gecode_all_different_int(X_INTRODUCED_33_):: domain;
constraint gecode_all_different_int(X_INTRODUCED_42_):: domain;
constraint int_lin_eq([1,-1],[X_INTRODUCED_16_,X_INTRODUCED_25_],-1):: defines_var(X_INTRODUCED_25_);
constraint int_lin_eq([1,-1],[X_INTRODUCED_17_,X_INTRODUCED_26_],-2):: defines_var(X_INTRODUCED_26_);
constraint int_lin_eq([1,-1],[X_INTRODUCED_18_,X_INTRODUCED_27_],-3):: defines_var(X_INTRODUCED_27_);
constraint int_lin_eq([1,-1],[X_INTRODUCED_19_,X_INTRODUCED_28_],-4):: defines_var(X_INTRODUCED_28_);
constraint int_lin_eq([1,-1],[X_INTRODUCED_20_,X_INTRODUCED_29_],-5):: defines_var(X_INTRODUCED_29_);
constraint int_lin_eq([1,-1],[X_INTRODUCED_21_,X_INTRODUCED_30_],-6):: defines_var(X_INTRODUCED_30_);
constraint int_lin_eq([1,-1],[X_INTRODUCED_22_,X_INTRODUCED_31_],-7):: defines_var(X_INTRODUCED_31_);
constraint int_lin_eq([1,-1],[X_INTRODUCED_23_,X_INTRODUCED_32_],-8):: defines_var(X_INTRODUCED_32_);
constraint int_lin_eq([1,-1],[X_INTRODUCED_16_,X_INTRODUCED_34_],1):: defines_var(X_INTRODUCED_34_);
constraint int_lin_eq([1,-1],[X_INTRODUCED_17_,X_INTRODUCED_35_],2):: defines_var(X_INTRODUCED_35_);
constraint int_lin_eq([1,-1],[X_INTRODUCED_18_,X_INTRODUCED_36_],3):: defines_var(X_INTRODUCED_36_);
constraint int_lin_eq([1,-1],[X_INTRODUCED_19_,X_INTRODUCED_37_],4):: defines_var(X_INTRODUCED_37_);
constraint int_lin_eq([1,-1],[X_INTRODUCED_20_,X_INTRODUCED_38_],5):: defines_var(X_INTRODUCED_38_);
constraint int_lin_eq([1,-1],[X_INTRODUCED_21_,X_INTRODUCED_39_],6):: defines_var(X_INTRODUCED_39_);
constraint int_lin_eq([1,-1],[X_INTRODUCED_22_,X_INTRODUCED_40_],7):: defines_var(X_INTRODUCED_40_);
constraint int_lin_eq([1,-1],[X_INTRODUCED_23_,X_INTRODUCED_41_],8):: defines_var(X_INTRODUCED_41_);
solve :: int_search(queens,first_fail,indomain_median,complete) satisfy;
