models/minizinc/054_queens5.ozn
output ["queens: "++show(queens)]++["\n"];
int: n = 8;
array [1..n] of int: queens;
